p cnf 8 25
-3 4 2 0
2 -5 4 0
-1 -8 -4 0
5 -5 -2 0
-3 5 -5 0
-6 -4 2 0
-3 -3 -4 0
1 1 -8 0
-6 -6 -2 0
-4 -8 6 0
2 1 -1 0
3 8 -8 0
-8 -5 -4 0
-2 -6 -8 0
-1 -2 6 0
5 -5 1 0
-6 6 1 0
5 5 -1 0
1 -2 8 0
1 1 1 0
7 5 4 0
-4 -3 -8 0
-7 2 1 0
4 7 -6 0
-6 8 -7 0
